p cnf 47 129
-3 1 0
-3 2 0
-1 -2 3 0
-4 -5 0
4 -5 0
6 -3 0
6 -5 0
3 5 -6 0
-8 -9 -10 0
8 9 -10 0
-8 9 10 0
8 -9 10 0
7 -10 -11 0
-7 10 -11 0
7 10 11 0
-7 -10 11 0
12 13 0
-12 13 0
14 4 -15 0
-14 -4 -15 0
14 -4 15 0
-14 4 15 0
-16 13 0
-16 -15 0
-13 15 16 0
11 -16 -17 0
-11 16 -17 0
11 16 17 0
-11 -16 17 0
-18 -8 0
-18 2 0
8 -2 18 0
2 -18 -19 0
-2 18 -19 0
2 18 19 0
-2 -18 19 0
17 19 -20 0
-17 -19 -20 0
17 -19 20 0
-17 19 20 0
-21 6 0
-21 20 0
-6 -20 21 0
23 -22 0
23 -7 0
22 7 -23 0
21 -23 -24 0
-21 23 -24 0
21 23 24 0
-21 -23 24 0
-26 -9 0
-26 25 0
9 -25 26 0
-25 18 -27 0
25 -18 -27 0
-25 -18 27 0
25 18 27 0
-28 -26 0
-28 27 0
26 -27 28 0
-15 14 -29 0
15 -14 -29 0
-15 -14 29 0
15 14 29 0
32 30 0
32 -31 0
-30 31 -32 0
-34 32 0
-34 33 0
-32 -33 34 0
35 4 0
35 -1 0
-4 1 -35 0
36 35 0
36 12 0
-35 -12 -36 0
-34 36 -37 0
34 -36 -37 0
-34 -36 37 0
34 36 37 0
38 -29 0
38 -37 0
29 37 -38 0
-40 -8 0
-40 -30 0
8 30 40 0
41 -39 0
41 40 0
39 -40 -41 0
-42 31 0
-42 41 0
-31 -41 42 0
43 38 0
43 -42 0
-38 42 -43 0
-44 28 0
-44 -43 0
-28 43 44 0
45 -1 0
45 -33 0
1 33 -45 0
46 44 0
46 45 0
-44 -45 -46 0
-47 24 0
-47 46 0
-24 -46 47 0
-39 -35 -2 -19 -32 36 0
-33 -44 3 0
-18 -35 41 26 0
-29 41 -4 0
-28 3 45 -8 -29 -37 0
42 2 44 -4 28 0
32 28 -34 0
2 46 8 12 0
-37 -19 12 -41 0
32 7 3 -1 -25 0
44 35 39 -15 0
-34 32 -27 0
29 20 9 0
-11 -6 7 0
-2 -27 0
-15 -30 -11 0
-42 -5 11 32 -45 0
43 35 12 13 27 40 0
31 9 -17 4 0
13 -39 8 0
-27 -38 -28 0
47 0
